webassembly/ejemplos_dzn/folder8_json_5.dzn
TERM = { '.', 's(2)', 'in_1', 'local_0', 'local_1', 'in_2', 'in_4', 'in_3', 's(1)', 's(0)', 'in_5', 'in_0'};
null = '.';
s = 8;
n = 12;
ndeps = 2;
max_registers_sz = 5;
NR = 2;
registers = [|'local_0', 'in_4', |'local_1', 's(0)'|];
dependencies = [|'i32.store8_1', 'i32.load_2', |'i32.load_2', 'i32.store_4'|];
GET_ENUM = { GET1, GET2, GET3, GET4, GET5, GET6, GET7};
SET_ENUM = { SET1, SET2, SET3, SET4, SET5, SET6, SET7};
TEE_ENUM = { TEE1, TEE2, TEE3, TEE4, TEE5, TEE6, TEE7};
N = 5;
OP = { 'i32.const_0', 'i32.add_0', 'i32.store8_1', 'i32.load_2', 'i32.store_4' };
in_ops = [0, 2, 2, 1, 2 ];
out_ops = [1, 1, 0, 1, 0 ];
in1 = ['.', 's(2)', 'local_0', 'in_1', 'in_2' ];
in2 = ['.', 'in_5', 'in_0', '.', 'in_3' ];
in3 = ['.', '.', '.', '.', '.' ];
out1 = ['s(2)', 's(1)', '.', 's(0)', '.' ];
out2 = ['.', '.', '.', '.', '.' ];
out3 = ['.', '.', '.', '.', '.' ];
comm = [false, true, false, false, false ];
gas = [1, 1, 1, 1, 1 ];
sz = [1, 1, 1, 1, 1 ];
stor = [false, false, true, false, true ];
lb = [ 1, 1, 1, 1, 1 ];
ub = [ 8, 8, 8, 8, 8 ];
startstack = [ 'in_0', 'in_1', 'in_2', 'in_3', 'in_4', 'in_5', null, null, null, null, null, null ];
endstack = [ 's(1)', null, null, null, null, null, null, null, null, null, null, null ];
