webassembly/ejemplos_results/8/folder8_json_5.txt
value = 8;
fgas = [2, 1, 1, 1, 1, 1, 1, 1];
fsize = [1, 1, 1, 1, 1, 1, 1, 1];
states = 
[|    in_0, in_1, in_2, in_3, in_4, in_5, '.', '.', '.', '.', '.', '.'
 |    in_1, in_2, in_3, in_4, in_5,  '.', '.', '.', '.', '.', '.', '.'
 |  's(0)', in_2, in_3, in_4, in_5,  '.', '.', '.', '.', '.', '.', '.'
 |    in_2, in_3, in_4, in_5,  '.',  '.', '.', '.', '.', '.', '.', '.'
 | local_0, in_0,  '.',  '.',  '.',  '.', '.', '.', '.', '.', '.', '.'
 |    in_4, in_5,  '.',  '.',  '.',  '.', '.', '.', '.', '.', '.', '.'
 |    in_5,  '.',  '.',  '.',  '.',  '.', '.', '.', '.', '.', '.', '.'
 |  's(2)', in_5,  '.',  '.',  '.',  '.', '.', '.', '.', '.', '.', '.'
 |  's(1)',  '.',  '.',  '.',  '.',  '.', '.', '.', '.', '.', '.', '.'
 |];
register_states = 
[| local_0, local_1, '.', '.', '.', '.', '.'
 | local_0, local_1, '.', '.', '.', '.', '.'
 | local_0, local_1, '.', '.', '.', '.', '.'
 | local_0,  's(0)', '.', '.', '.', '.', '.'
 | local_0,  's(0)', '.', '.', '.', '.', '.'
 | local_0,  's(0)', '.', '.', '.', '.', '.'
 |    in_4,  's(0)', '.', '.', '.', '.', '.'
 |    in_4,  's(0)', '.', '.', '.', '.', '.'
 |    in_4,  's(0)', '.', '.', '.', '.', '.'
 |];
program = [POP, O('i32.load_2'), S(SET2), O('i32.store_4'), O('i32.store8_1'), S(SET1), O('i32.const_0'), O('i32.add_0')];
% time elapsed: 0.16 s
----------
==========
% time elapsed: 0.17 s
% [value > 7]
